30	100	100	100
96	18	78
79	37	82
83	1	85
70	6	97
98	7	76
93	1	72
75	41	72
69	20	73
77	26	85
67	44	94
85	19	84
70	18	71
92	6	93
88	48	80
68	35	98
91	20	75
75	9	80
79	13	89
98	2	97
93	34	84
81	37	67
97	18	76
87	47	72
78	8	83
66	6	92
76	12	70
80	43	77
72	48	98
77	34	90
77	25	71
